54883 50377
6029 33526
18821 59276
17497 17095
41762 18613
5702 1477
56052 52350
24151 48821
25854 47625
38199 23415
6294 62876
34966 30155
1868 5498
35791 48215
21082 31296
42192 41763
20901 22313
48514 26249
3281 14494
17691 46169
40677 29814
12487 41822
11223 18188
40250 33035
54666 10704
56065 21108
32188 8132
4872 8244
38613 2442
18400 27992
6103 23355
63003 62008
47818 23371
15670 55863
16173 48575
51175 28827
58040 12729
33018 24992
25739 14446
64972 33399
30932 18398
42962 59965
20098 21078
6884 2387
34034 44420
16884 34066
49786 35065
46962 8761
8479 25526
56146 25039
33926 34798
10956 48137
46119 54543
35084 35110
52912 55647
59407 25326
7250 3493
26173 57947
10184 41847
25065 10081
45532 52522
42899 44498
36396 10692
51595 13799
18790 23937
8342 51275
9224 437
21843 55609
